benchmarks/bfuzz0/249011138524038129821631205912680414874.smt2
(set-logic QF_FP)
(declare-const x0 (_ FloatingPoint 11 53))
(declare-const x1 (_ FloatingPoint 11 53))
(declare-const x2 (_ FloatingPoint 11 53))
(declare-const x3 (_ FloatingPoint 11 53))
(declare-const x4 (_ FloatingPoint 11 53))
(declare-const x5 (_ FloatingPoint 11 53))
(declare-const x6 (_ FloatingPoint 11 53))
(declare-const x7 (_ FloatingPoint 11 53))
(declare-const x8 (_ FloatingPoint 11 53))
(declare-const x9 (_ FloatingPoint 11 53))
(declare-const x10 (_ FloatingPoint 11 53))
(declare-const x11 (_ FloatingPoint 11 53))
(declare-const x12 (_ FloatingPoint 11 53))
(declare-const x13 (_ FloatingPoint 11 53))
(declare-const x14 (_ FloatingPoint 11 53))
(declare-const x15 (_ FloatingPoint 11 53))
(declare-const x16 (_ FloatingPoint 11 53))
(declare-const x17 (_ FloatingPoint 11 53))
(declare-const x18 (_ FloatingPoint 11 53))
(declare-const x19 (_ FloatingPoint 11 53))
(assert (fp.leq (fp.add RNE x5 x2) (fp.mul RNE x18 x17)))
(assert (fp.eq (fp.neg x10) (fp.add RNE x14 x12)))
(assert (fp.gt (fp.div RNE x12 x19) (fp.mul RNE x12 x16)))
(assert (fp.gt (fp.mul RNE x3 x10) (fp.mul RNE x1 x15)))
(assert (fp.gt (fp.mul RNE x17 x15) (fp.mul RNE x5 x17)))
(assert (fp.lt (fp.mul RNE x18 x14) (fp.add RNE x5 x13)))
(assert (fp.geq (fp.mul RNE x12 x14) (fp.div RNE x13 x7)))
(assert (fp.geq (fp.mul RNE x4 x3) (fp.div RNE x17 x16)))
(assert (fp.gt (fp.mul RNE x13 x6) (fp.mul RNE x13 x17)))
(check-sat)
