db/data/249011138524038129821631205912680414874.z3.out
-------------------
2500.091864653
